p cnf 1252
-23 -387
-24 -390
-25 -393
-26 -396
-27 -399
-28 -402
-29 -405
-30 -408
-31 -411
-32 -414
-33 -417
-34 -420
-35 -423
-36 -426
-37 -429
-38 -432
-39 -435
-40 -438
-41 -441
-42 -444
-43 -447
-44 -450
-45 451
-46 452
-47 453
-48 454
-49 455
-50 -24
-50 -25
24 25 50
-51 -26
-51 -27
26 27 51
-52 -28
-52 -29
28 29 52
-53 -30
-53 -31
30 31 53
-54 -32
-54 -33
32 33 54
-55 -34
-55 -35
34 35 55
-56 -36
-56 -37
36 37 56
-57 -38
-57 -39
38 39 57
-58 -40
-58 -41
40 41 58
-59 -42
-59 -43
42 43 59
-60 -44
-60 -45
44 45 60
-61 -46
-61 -47
46 47 61
-62 -48
-62 -49
48 49 62
-63 50
-63 51
-50 -51 63
-64 52
-64 53
-52 -53 64
-65 54
-65 55
-54 -55 65
-66 56
-66 57
-56 -57 66
-67 58
-67 59
-58 -59 67
-68 60
-68 61
-60 -61 68
-69 63
-69 64
-63 -64 69
-70 65
-70 66
-65 -66 70
-71 67
-71 68
-67 -68 71
-72 69
-72 70
-69 -70 72
-73 62
-73 71
-62 -71 73
-74 72
-74 73
-72 -73 74
-75 -23
-75 24
23 -24 75
-76 23
-76 -24
-23 24 76
-77 -75
-77 -76
75 76 77
-78 23
-78 24
-23 -24 78
-79 -23
-79 -77
23 77 79
-80 23
-80 77
-23 -77 80
-81 -79
-81 -80
79 80 81
-82 23
-82 -77
-23 77 82
-83 -78
-83 -82
78 82 83
-84 -24
-84 25
24 -25 84
-85 24
-85 -25
-24 25 85
-86 -84
-86 -85
84 85 86
-87 24
-87 25
-24 -25 87
-88 83
-88 -86
-83 86 88
-89 -83
-89 86
83 -86 89
-90 -88
-90 -89
88 89 90
-91 -83
-91 -86
83 86 91
-92 -87
-92 -91
87 91 92
-93 -25
-93 26
25 -26 93
-94 25
-94 -26
-25 26 94
-95 -93
-95 -94
93 94 95
-96 25
-96 26
-25 -26 96
-97 92
-97 -95
-92 95 97
-98 -92
-98 95
92 -95 98
-99 -97
-99 -98
97 98 99
-100 -92
-100 -95
92 95 100
-101 -96
-101 -100
96 100 101
-102 -26
-102 27
26 -27 102
-103 26
-103 -27
-26 27 103
-104 -102
-104 -103
102 103 104
-105 26
-105 27
-26 -27 105
-106 101
-106 -104
-101 104 106
-107 -101
-107 104
101 -104 107
-108 -106
-108 -107
106 107 108
-109 -101
-109 -104
101 104 109
-110 -105
-110 -109
105 109 110
-111 -27
-111 28
27 -28 111
-112 27
-112 -28
-27 28 112
-113 -111
-113 -112
111 112 113
-114 27
-114 28
-27 -28 114
-115 110
-115 -113
-110 113 115
-116 -110
-116 113
110 -113 116
-117 -115
-117 -116
115 116 117
-118 -110
-118 -113
110 113 118
-119 -114
-119 -118
114 118 119
-120 -28
-120 29
28 -29 120
-121 28
-121 -29
-28 29 121
-122 -120
-122 -121
120 121 122
-123 28
-123 29
-28 -29 123
-124 119
-124 -122
-119 122 124
-125 -119
-125 122
119 -122 125
-126 -124
-126 -125
124 125 126
-127 -119
-127 -122
119 122 127
-128 -123
-128 -127
123 127 128
-129 -29
-129 30
29 -30 129
-130 29
-130 -30
-29 30 130
-131 -129
-131 -130
129 130 131
-132 29
-132 30
-29 -30 132
-133 128
-133 -131
-128 131 133
-134 -128
-134 131
128 -131 134
-135 -133
-135 -134
133 134 135
-136 -128
-136 -131
128 131 136
-137 -132
-137 -136
132 136 137
-138 -30
-138 31
30 -31 138
-139 30
-139 -31
-30 31 139
-140 -138
-140 -139
138 139 140
-141 30
-141 31
-30 -31 141
-142 137
-142 -140
-137 140 142
-143 -137
-143 140
137 -140 143
-144 -142
-144 -143
142 143 144
-145 -137
-145 -140
137 140 145
-146 -141
-146 -145
141 145 146
-147 -31
-147 32
31 -32 147
-148 31
-148 -32
-31 32 148
-149 -147
-149 -148
147 148 149
-150 31
-150 32
-31 -32 150
-151 146
-151 -149
-146 149 151
-152 -146
-152 149
146 -149 152
-153 -151
-153 -152
151 152 153
-154 -146
-154 -149
146 149 154
-155 -150
-155 -154
150 154 155
-156 -32
-156 33
32 -33 156
-157 32
-157 -33
-32 33 157
-158 -156
-158 -157
156 157 158
-159 32
-159 33
-32 -33 159
-160 155
-160 -158
-155 158 160
-161 -155
-161 158
155 -158 161
-162 -160
-162 -161
160 161 162
-163 -155
-163 -158
155 158 163
-164 -159
-164 -163
159 163 164
-165 -33
-165 34
33 -34 165
-166 33
-166 -34
-33 34 166
-167 -165
-167 -166
165 166 167
-168 33
-168 34
-33 -34 168
-169 164
-169 -167
-164 167 169
-170 -164
-170 167
164 -167 170
-171 -169
-171 -170
169 170 171
-172 -164
-172 -167
164 167 172
-173 -168
-173 -172
168 172 173
-174 -34
-174 35
34 -35 174
-175 34
-175 -35
-34 35 175
-176 -174
-176 -175
174 175 176
-177 34
-177 35
-34 -35 177
-178 173
-178 -176
-173 176 178
-179 -173
-179 176
173 -176 179
-180 -178
-180 -179
178 179 180
-181 -173
-181 -176
173 176 181
-182 -177
-182 -181
177 181 182
-183 -35
-183 36
35 -36 183
-184 35
-184 -36
-35 36 184
-185 -183
-185 -184
183 184 185
-186 35
-186 36
-35 -36 186
-187 182
-187 -185
-182 185 187
-188 -182
-188 185
182 -185 188
-189 -187
-189 -188
187 188 189
-190 -182
-190 -185
182 185 190
-191 -186
-191 -190
186 190 191
-192 -36
-192 37
36 -37 192
-193 36
-193 -37
-36 37 193
-194 -192
-194 -193
192 193 194
-195 36
-195 37
-36 -37 195
-196 191
-196 -194
-191 194 196
-197 -191
-197 194
191 -194 197
-198 -196
-198 -197
196 197 198
-199 -191
-199 -194
191 194 199
-200 -195
-200 -199
195 199 200
-201 -37
-201 38
37 -38 201
-202 37
-202 -38
-37 38 202
-203 -201
-203 -202
201 202 203
-204 37
-204 38
-37 -38 204
-205 200
-205 -203
-200 203 205
-206 -200
-206 203
200 -203 206
-207 -205
-207 -206
205 206 207
-208 -200
-208 -203
200 203 208
-209 -204
-209 -208
204 208 209
-210 -38
-210 39
38 -39 210
-211 38
-211 -39
-38 39 211
-212 -210
-212 -211
210 211 212
-213 38
-213 39
-38 -39 213
-214 209
-214 -212
-209 212 214
-215 -209
-215 212
209 -212 215
-216 -214
-216 -215
214 215 216
-217 -209
-217 -212
209 212 217
-218 -213
-218 -217
213 217 218
-219 -39
-219 40
39 -40 219
-220 39
-220 -40
-39 40 220
-221 -219
-221 -220
219 220 221
-222 39
-222 40
-39 -40 222
-223 218
-223 -221
-218 221 223
-224 -218
-224 221
218 -221 224
-225 -223
-225 -224
223 224 225
-226 -218
-226 -221
218 221 226
-227 -222
-227 -226
222 226 227
-228 -40
-228 41
40 -41 228
-229 40
-229 -41
-40 41 229
-230 -228
-230 -229
228 229 230
-231 40
-231 41
-40 -41 231
-232 227
-232 -230
-227 230 232
-233 -227
-233 230
227 -230 233
-234 -232
-234 -233
232 233 234
-235 -227
-235 -230
227 230 235
-236 -231
-236 -235
231 235 236
-237 -41
-237 42
41 -42 237
-238 41
-238 -42
-41 42 238
-239 -237
-239 -238
237 238 239
-240 41
-240 42
-41 -42 240
-241 236
-241 -239
-236 239 241
-242 -236
-242 239
236 -239 242
-243 -241
-243 -242
241 242 243
-244 -236
-244 -239
236 239 244
-245 -240
-245 -244
240 244 245
-246 -42
-246 43
42 -43 246
-247 42
-247 -43
-42 43 247
-248 -246
-248 -247
246 247 248
-249 42
-249 43
-42 -43 249
-250 245
-250 -248
-245 248 250
-251 -245
-251 248
245 -248 251
-252 -250
-252 -251
250 251 252
-253 -245
-253 -248
245 248 253
-254 -249
-254 -253
249 253 254
-255 -43
-255 44
43 -44 255
-256 43
-256 -44
-43 44 256
-257 -255
-257 -256
255 256 257
-258 43
-258 44
-43 -44 258
-259 254
-259 -257
-254 257 259
-260 -254
-260 257
254 -257 260
-261 -259
-261 -260
259 260 261
-262 -254
-262 -257
254 257 262
-263 -258
-263 -262
258 262 263
-264 -44
-264 45
44 -45 264
-265 44
-265 -45
-44 45 265
-266 -264
-266 -265
264 265 266
-267 44
-267 45
-44 -45 267
-268 263
-268 -266
-263 266 268
-269 -263
-269 266
263 -266 269
-270 -268
-270 -269
268 269 270
-271 -263
-271 -266
263 266 271
-272 -267
-272 -271
267 271 272
-273 -45
-273 46
45 -46 273
-274 45
-274 -46
-45 46 274
-275 -273
-275 -274
273 274 275
-276 45
-276 46
-45 -46 276
-277 272
-277 -275
-272 275 277
-278 -272
-278 275
272 -275 278
-279 -277
-279 -278
277 278 279
-280 -272
-280 -275
272 275 280
-281 -276
-281 -280
276 280 281
-282 -46
-282 47
46 -47 282
-283 46
-283 -47
-46 47 283
-284 -282
-284 -283
282 283 284
-285 46
-285 47
-46 -47 285
-286 281
-286 -284
-281 284 286
-287 -281
-287 284
281 -284 287
-288 -286
-288 -287
286 287 288
-289 -281
-289 -284
281 284 289
-290 -285
-290 -289
285 289 290
-291 -47
-291 48
47 -48 291
-292 47
-292 -48
-47 48 292
-293 -291
-293 -292
291 292 293
-294 47
-294 48
-47 -48 294
-295 290
-295 -293
-290 293 295
-296 -290
-296 293
290 -293 296
-297 -295
-297 -296
295 296 297
-298 -290
-298 -293
290 293 298
-299 -294
-299 -298
294 298 299
-300 -48
-300 49
48 -49 300
-301 48
-301 -49
-48 49 301
-302 -300
-302 -301
300 301 302
-303 48
-303 49
-48 -49 303
-304 299
-304 -302
-299 302 304
-305 -299
-305 302
299 -302 305
-306 -304
-306 -305
304 305 306
-307 -299
-307 -302
299 302 307
-308 -303
-308 -307
303 307 308
-309 23
-309 -81
-23 81 309
-310 -23
-310 25
23 -25 310
-311 -309
-311 -310
309 310 311
-312 23
-312 -90
-23 90 312
-313 -23
-313 26
23 -26 313
-314 -312
-314 -313
312 313 314
-315 23
-315 -99
-23 99 315
-316 -23
-316 27
23 -27 316
-317 -315
-317 -316
315 316 317
-318 23
-318 -108
-23 108 318
-319 -23
-319 28
23 -28 319
-320 -318
-320 -319
318 319 320
-321 23
-321 -117
-23 117 321
-322 -23
-322 29
23 -29 322
-323 -321
-323 -322
321 322 323
-324 23
-324 -126
-23 126 324
-325 -23
-325 30
23 -30 325
-326 -324
-326 -325
324 325 326
-327 23
-327 -135
-23 135 327
-328 -23
-328 31
23 -31 328
-329 -327
-329 -328
327 328 329
-330 23
-330 -144
-23 144 330
-331 -23
-331 32
23 -32 331
-332 -330
-332 -331
330 331 332
-333 23
-333 -153
-23 153 333
-334 -23
-334 33
23 -33 334
-335 -333
-335 -334
333 334 335
-336 23
-336 -162
-23 162 336
-337 -23
-337 34
23 -34 337
-338 -336
-338 -337
336 337 338
-339 23
-339 -171
-23 171 339
-340 -23
-340 35
23 -35 340
-341 -339
-341 -340
339 340 341
-342 23
-342 -180
-23 180 342
-343 -23
-343 36
23 -36 343
-344 -342
-344 -343
342 343 344
-345 23
-345 -189
-23 189 345
-346 -23
-346 37
23 -37 346
-347 -345
-347 -346
345 346 347
-348 23
-348 -198
-23 198 348
-349 -23
-349 38
23 -38 349
-350 -348
-350 -349
348 349 350
-351 23
-351 -207
-23 207 351
-352 -23
-352 39
23 -39 352
-353 -351
-353 -352
351 352 353
-354 23
-354 -216
-23 216 354
-355 -23
-355 40
23 -40 355
-356 -354
-356 -355
354 355 356
-357 23
-357 -225
-23 225 357
-358 -23
-358 41
23 -41 358
-359 -357
-359 -358
357 358 359
-360 23
-360 -234
-23 234 360
-361 -23
-361 42
23 -42 361
-362 -360
-362 -361
360 361 362
-363 23
-363 -243
-23 243 363
-364 -23
-364 43
23 -43 364
-365 -363
-365 -364
363 364 365
-366 23
-366 -252
-23 252 366
-367 -23
-367 44
23 -44 367
-368 -366
-368 -367
366 367 368
-369 23
-369 -261
-23 261 369
-370 -23
-370 45
23 -45 370
-371 -369
-371 -370
369 370 371
-372 23
-372 -270
-23 270 372
-373 -23
-373 46
23 -46 373
-374 -372
-374 -373
372 373 374
-375 23
-375 -279
-23 279 375
-376 -23
-376 47
23 -47 376
-377 -375
-377 -376
375 376 377
-378 23
-378 -288
-23 288 378
-379 -23
-379 48
23 -48 379
-380 -378
-380 -379
378 379 380
-381 23
-381 -297
-23 297 381
-382 -23
-382 49
23 -49 382
-383 -381
-383 -382
381 382 383
-384 23
-384 -306
-23 306 384
-385 1
-385 74
-1 -74 385
-386 -74
-386 75
74 -75 386
-387 -385
-387 -386
385 386 387
-388 2
-388 74
-2 -74 388
-389 -74
-389 -311
74 311 389
-390 -388
-390 -389
388 389 390
-391 3
-391 74
-3 -74 391
-392 -74
-392 -314
74 314 392
-393 -391
-393 -392
391 392 393
-394 4
-394 74
-4 -74 394
-395 -74
-395 -317
74 317 395
-396 -394
-396 -395
394 395 396
-397 5
-397 74
-5 -74 397
-398 -74
-398 -320
74 320 398
-399 -397
-399 -398
397 398 399
-400 6
-400 74
-6 -74 400
-401 -74
-401 -323
74 323 401
-402 -400
-402 -401
400 401 402
-403 7
-403 74
-7 -74 403
-404 -74
-404 -326
74 326 404
-405 -403
-405 -404
403 404 405
-406 8
-406 74
-8 -74 406
-407 -74
-407 -329
74 329 407
-408 -406
-408 -407
406 407 408
-409 9
-409 74
-9 -74 409
-410 -74
-410 -332
74 332 410
-411 -409
-411 -410
409 410 411
-412 10
-412 74
-10 -74 412
-413 -74
-413 -335
74 335 413
-414 -412
-414 -413
412 413 414
-415 11
-415 74
-11 -74 415
-416 -74
-416 -338
74 338 416
-417 -415
-417 -416
415 416 417
-418 12
-418 74
-12 -74 418
-419 -74
-419 -341
74 341 419
-420 -418
-420 -419
418 419 420
-421 13
-421 74
-13 -74 421
-422 -74
-422 -344
74 344 422
-423 -421
-423 -422
421 422 423
-424 14
-424 74
-14 -74 424
-425 -74
-425 -347
74 347 425
-426 -424
-426 -425
424 425 426
-427 15
-427 74
-15 -74 427
-428 -74
-428 -350
74 350 428
-429 -427
-429 -428
427 428 429
-430 16
-430 74
-16 -74 430
-431 -74
-431 -353
74 353 431
-432 -430
-432 -431
430 431 432
-433 17
-433 74
-17 -74 433
-434 -74
-434 -356
74 356 434
-435 -433
-435 -434
433 434 435
-436 18
-436 74
-18 -74 436
-437 -74
-437 -359
74 359 437
-438 -436
-438 -437
436 437 438
-439 19
-439 74
-19 -74 439
-440 -74
-440 -362
74 362 440
-441 -439
-441 -440
439 440 441
-442 20
-442 74
-20 -74 442
-443 -74
-443 -365
74 365 443
-444 -442
-444 -443
442 443 444
-445 21
-445 74
-21 -74 445
-446 -74
-446 -368
74 368 446
-447 -445
-447 -446
445 446 447
-448 22
-448 74
-22 -74 448
-449 -74
-449 -371
74 371 449
-450 -448
-450 -449
448 449 450
-451 -74
-451 -374
74 374 451
-452 -74
-452 -377
74 377 452
-453 -74
-453 -380
74 380 453
-454 -74
-454 -383
74 383 454
-455 -74
-455 384
74 -384 455
-456 -49
-456 308
49 -308 456
-457 23
-457 -456
-23 456 457
457
